p tw 90 135
1 2
1 10
1 89
2 13
2 82
13 24
13 34
24 35
24 53
35 46
35 6
46 57
46 77
57 68
57 17
68 79
68 88
79 90
79 41
90 3
90 60
3 4
3 12
4 5
4 84
5 6
5 23
6 7
7 8
7 48
8 9
8 66
9 10
9 19
10 11
11 12
11 30
12 14
14 15
14 54
15 16
15 73
16 17
16 26
17 18
18 19
18 37
19 20
20 21
20 61
21 22
21 80
22 23
22 32
23 25
25 26
25 43
26 27
27 28
27 67
28 29
28 86
29 30
29 39
30 31
31 32
31 50
32 33
33 34
33 74
34 36
36 37
36 45
37 38
38 39
38 56
39 40
40 41
40 81
41 42
42 43
42 52
43 44
44 45
44 63
45 47
47 48
47 87
48 49
49 50
49 59
50 51
51 52
51 70
52 53
53 54
54 55
55 56
55 65
56 58
58 59
58 76
59 60
60 61
61 62
62 63
62 72
63 64
64 65
64 83
65 66
66 67
67 69
69 70
69 78
70 71
71 72
71 89
72 73
73 74
74 75
75 76
75 85
76 77
77 78
78 80
80 81
81 82
82 83
83 84
84 85
85 86
86 87
87 88
88 89
